benchmarks/find_max_three/hard.solution
Problem: find_max_three
Difficulty: hard
Type: DEBUG SOLUTION (Expected)
Status: VERIFIED
Solution: ifelse(x >= y, ifelse(x >= z, x, z), ifelse(y >= z, y, z))

Verification Result:
    ✓ VERIFIED: All constraints satisfied
Z3 Status: unsat
